NAME : Instance 24
COMMENT : Comment 24
TYPE : TSP
DIMENSION: 30
EDGE_WEIGHT_TYPE : EUC_2D
NODE_COORD_SECTION
  1 222 972
  2 1250 742
  3 261 1127
  4 170 1484
  5 1787 1062
  6 538 255
  7 1572 1690
  8 348 1089
  9 1407 439
  10 662 161
  11 367 1829
  12 1942 799
  13 1678 971
  14 1557 788
  15 1488 1814
  16 1933 106
  17 1416 1070
  18 1474 582
  19 936 109
  20 394 935
  21 156 1205
  22 1493 1637
  23 557 1397
  24 1109 155
  25 219 327
  26 212 295
  27 876 843
  28 1057 989
  29 1147 201
  30 91 1820
EOF
